p cnf 95 199
c x0 -> 10
c x1 -> 46
c x2 -> 87
c x3 -> 67
c x4 -> 24
c x5 -> 77
c x6 -> 51
c x7 -> 38
2 3 -1 0
-2 -3 -1 0
2 -3 1 0
-2 3 1 0
4 2 0
-4 -2 0
5 3 0
-5 -3 0
6 -4 0
7 -4 0
-6 -7 4 0
8 -5 0
9 -5 0
-8 -9 5 0
10 6 0
-10 -6 0
11 7 0
-11 -7 0
10 8 0
-10 -8 0
13 9 0
-13 -9 0
14 -11 0
15 -11 0
-14 -15 11 0
16 -13 0
17 -13 0
-16 -17 13 0
18 14 0
-18 -14 0
19 -15 0
20 -15 0
-19 -20 15 0
21 16 0
-21 -16 0
22 -17 0
23 -17 0
-22 -23 17 0
24 -18 0
25 -18 0
-24 -25 18 0
26 19 0
-26 -19 0
27 -20 0
28 -20 0
-27 -28 20 0
24 -21 0
30 -21 0
-24 -30 21 0
31 22 0
-31 -22 0
32 -23 0
33 -23 0
-32 -33 23 0
34 25 0
-34 -25 0
35 -26 0
36 -26 0
-35 -36 26 0
37 27 0
-37 -27 0
38 -28 0
39 -28 0
-38 -39 28 0
40 30 0
-40 -30 0
41 -31 0
42 -31 0
-41 -42 31 0
43 32 0
-43 -32 0
38 -33 0
45 -33 0
-38 -45 33 0
46 -34 0
47 -34 0
-46 -47 34 0
48 35 0
-48 -35 0
49 -36 0
50 -36 0
-49 -50 36 0
51 -37 0
52 -37 0
-51 -52 37 0
53 39 0
-53 -39 0
46 -40 0
55 -40 0
-46 -55 40 0
56 41 0
-56 -41 0
57 -42 0
58 -42 0
-57 -58 42 0
51 -43 0
60 -43 0
-51 -60 43 0
61 45 0
-61 -45 0
62 47 0
-62 -47 0
63 -48 0
64 -48 0
-63 -64 48 0
24 49 0
-24 -49 0
65 50 0
-65 -50 0
66 52 0
-66 -52 0
67 -53 0
68 -53 0
-67 -68 53 0
69 55 0
-69 -55 0
70 -56 0
71 -56 0
-70 -71 56 0
24 57 0
-24 -57 0
72 58 0
-72 -58 0
73 60 0
-73 -60 0
67 -61 0
75 -61 0
-67 -75 61 0
48 -62 0
76 -62 0
-48 -76 62 0
77 63 0
-77 -63 0
78 64 0
-78 -64 0
79 -65 0
63 -65 0
-79 -63 65 0
46 -66 0
63 -66 0
-46 -63 66 0
80 68 0
-80 -68 0
56 -69 0
81 -69 0
-56 -81 69 0
77 70 0
-77 -70 0
83 71 0
-83 -71 0
84 -72 0
70 -72 0
-84 -70 72 0
46 -73 0
70 -73 0
-46 -70 73 0
85 75 0
-85 -75 0
86 76 0
-86 -76 0
67 -78 0
51 -78 0
-67 -51 78 0
87 79 0
-87 -79 0
46 -80 0
88 -80 0
-46 -88 80 0
89 81 0
-89 -81 0
67 -83 0
51 -83 0
-67 -51 83 0
87 84 0
-87 -84 0
46 -85 0
91 -85 0
-46 -91 85 0
87 -86 0
51 -86 0
-87 -51 86 0
92 88 0
-92 -88 0
87 -89 0
51 -89 0
-87 -51 89 0
93 91 0
-93 -91 0
79 -92 0
94 -92 0
-79 -94 92 0
84 -93 0
95 -93 0
-84 -95 93 0
51 94 0
-51 -94 0
51 95 0
-51 -95 0
1 0
